c A SAT instance generated from a 3-CNF formula that had 39 clauses and 13 variables
p cnf 13 39
-11 -6 12 0
-13 5 9 0
3 5 -10 0
-10 8 -3 0
-2 -10 3 0
3 11 13 0
-7 4 -11 0
7 5 2 0
-13 -2 -3 0
-4 -8 -11 0
10 13 -1 0
-11 6 8 0
9 -4 8 0
-2 -13 4 0
-6 -12 3 0
-4 9 -6 0
2 -10 -9 0
-7 -9 12 0
1 6 -11 0
-13 -12 5 0
7 11 8 0
7 -4 1 0
-2 -8 -5 0
10 1 9 0
-7 -4 3 0
5 -11 2 0
11 -3 -13 0
1 9 -12 0
-10 9 13 0
6 -12 1 0
4 10 5 0
-11 -2 -1 0
-1 -3 7 0
-3 -10 -7 0
7 -8 -11 0
8 3 -2 0
4 10 -7 0
3 -13 -6 0
13 11 -1 0
